NAME: ./prFile/tspFile/tsp_file74.tsp
COMMENT: TSP file generated by Python
TYPE: TSP
DIMENSION: 40
EDGE_WEIGHT_TYPE: EUC_2D
NODE_COORD_SECTION
1 29 12
2 26 89
3 51 4
4 34 79
5 35 19
6 63 72
7 85 82
8 3 94
9 67 56
10 73 84
11 32 82
12 71 41
13 50 5
14 32 12
15 68 59
16 35 36
17 57 95
18 45 15
19 41 56
20 98 60
21 36 82
22 34 60
23 29 98
24 89 30
25 32 31
26 45 87
27 82 92
28 95 83
29 31 51
30 21 48
31 100 85
32 29 54
33 30 5
34 82 12
35 16 8
36 25 5
37 4 61
38 76 100
39 29 2
40 34 25
EOF
